language ESSENCE' 1.0

letting C_FunctionND be
        [[0, 0, 0, 0, 0, 0, 0, 0, 0, 0, 0, 0, 0, 0, 0, 0, 0, 0, 0, 0, 0; int(0..20)],
         [1, 0, 0, 0, 0, 0, 0, 0, 0, 0, 0, 0, 0, 0, 0, 0, 0, 0, 0, 0, 0; int(0..20)],
         [1, 0, 0, 0, 0, 0, 0, 0, 0, 0, 0, 0, 0, 0, 0, 0, 0, 0, 0, 0, 0; int(0..20)],
         [1, 0, 0, 0, 0, 0, 0, 0, 0, 0, 0, 0, 0, 0, 0, 0, 0, 0, 0, 0, 0; int(0..20)],
         [1, 0, 0, 0, 0, 0, 0, 0, 0, 0, 0, 0, 0, 0, 0, 0, 0, 0, 0, 0, 0; int(0..20)],
         [1, 0, 0, 0, 0, 0, 0, 0, 0, 0, 0, 0, 0, 0, 0, 0, 0, 0, 0, 0, 0; int(0..20)],
         [1, 0, 0, 0, 0, 0, 0, 0, 0, 0, 0, 0, 0, 0, 0, 0, 0, 0, 0, 0, 0; int(0..20)],
         [1, 0, 0, 0, 0, 0, 0, 0, 0, 0, 0, 0, 0, 0, 0, 0, 0, 0, 0, 0, 0; int(0..20)],
         [1, 0, 0, 0, 0, 0, 0, 0, 0, 0, 0, 0, 0, 0, 0, 0, 0, 0, 0, 0, 0; int(0..20)],
         [0, 1, 1, 1, 0, 0, 0, 0, 0, 0, 0, 0, 0, 0, 0, 0, 0, 0, 0, 0, 0; int(0..20)],
         [0, 1, 0, 0, 1, 0, 0, 1, 0, 0, 0, 0, 0, 0, 0, 0, 0, 0, 0, 0, 0; int(0..20)],
         [0, 1, 0, 0, 0, 1, 0, 0, 0, 0, 0, 0, 0, 0, 0, 0, 0, 0, 0, 0, 0; int(0..20)],
         [0, 1, 0, 0, 0, 0, 1, 0, 1, 0, 0, 0, 0, 0, 0, 0, 0, 0, 0, 0, 0; int(0..20)],
         [0, 0, 1, 0, 1, 1, 0, 0, 1, 0, 0, 0, 0, 0, 0, 0, 0, 0, 0, 0, 0; int(0..20)],
         [0, 0, 1, 0, 0, 0, 1, 1, 0, 0, 0, 0, 0, 0, 0, 0, 0, 0, 0, 0, 0; int(0..20)],
         [0, 0, 0, 1, 1, 0, 0, 0, 0, 0, 0, 0, 0, 0, 0, 0, 0, 0, 0, 0, 0; int(0..20)],
         [0, 0, 0, 1, 0, 1, 1, 0, 0, 0, 0, 0, 0, 0, 0, 0, 0, 0, 0, 0, 0; int(0..20)],
         [0, 0, 0, 1, 0, 0, 0, 1, 1, 0, 0, 0, 0, 0, 0, 0, 0, 0, 0, 0, 0; int(0..20)],
         [0, 0, 0, 0, 1, 0, 1, 0, 0, 0, 0, 0, 0, 0, 0, 0, 0, 0, 0, 0, 0; int(0..20)],
         [0, 0, 0, 0, 0, 1, 0, 1, 0, 0, 0, 0, 0, 0, 0, 0, 0, 0, 0, 0, 0; int(0..20)],
         [0, 0, 0, 0, 0, 0, 0, 0, 0, 1, 1, 1, 1, 1, 1, 1, 1, 1, 1, 1, 0; int(0..20)];
             int(0..20)]
$ Visualisation for C_FunctionND
$ 0 0 0 0 0 0 0 0 0 0 0 0 0 0 0 0 0 0 0 0 0
$ 1 0 0 0 0 0 0 0 0 0 0 0 0 0 0 0 0 0 0 0 0
$ 1 0 0 0 0 0 0 0 0 0 0 0 0 0 0 0 0 0 0 0 0
$ 1 0 0 0 0 0 0 0 0 0 0 0 0 0 0 0 0 0 0 0 0
$ 1 0 0 0 0 0 0 0 0 0 0 0 0 0 0 0 0 0 0 0 0
$ 1 0 0 0 0 0 0 0 0 0 0 0 0 0 0 0 0 0 0 0 0
$ 1 0 0 0 0 0 0 0 0 0 0 0 0 0 0 0 0 0 0 0 0
$ 1 0 0 0 0 0 0 0 0 0 0 0 0 0 0 0 0 0 0 0 0
$ 1 0 0 0 0 0 0 0 0 0 0 0 0 0 0 0 0 0 0 0 0
$ 0 1 1 1 0 0 0 0 0 0 0 0 0 0 0 0 0 0 0 0 0
$ 0 1 0 0 1 0 0 1 0 0 0 0 0 0 0 0 0 0 0 0 0
$ 0 1 0 0 0 1 0 0 0 0 0 0 0 0 0 0 0 0 0 0 0
$ 0 1 0 0 0 0 1 0 1 0 0 0 0 0 0 0 0 0 0 0 0
$ 0 0 1 0 1 1 0 0 1 0 0 0 0 0 0 0 0 0 0 0 0
$ 0 0 1 0 0 0 1 1 0 0 0 0 0 0 0 0 0 0 0 0 0
$ 0 0 0 1 1 0 0 0 0 0 0 0 0 0 0 0 0 0 0 0 0
$ 0 0 0 1 0 1 1 0 0 0 0 0 0 0 0 0 0 0 0 0 0
$ 0 0 0 1 0 0 0 1 1 0 0 0 0 0 0 0 0 0 0 0 0
$ 0 0 0 0 1 0 1 0 0 0 0 0 0 0 0 0 0 0 0 0 0
$ 0 0 0 0 0 1 0 1 0 0 0 0 0 0 0 0 0 0 0 0 0
$ 0 0 0 0 0 0 0 0 0 1 1 1 1 1 1 1 1 1 1 1 0

letting J_FunctionND be
        [[0, 1, 2, 3, 4, 5, 6, 7, 8, 9, 10, 11, 12, 13, 14, 15, 16, 17, 18, 19, 20; int(0..20)],
         [1, 1, 9, 9, 10, 11, 12, 10, 12, 9, 10, 11, 12, 20, 20, 20, 20, 20, 20, 20, 20; int(0..20)],
         [2, 9, 2, 9, 13, 13, 14, 14, 13, 9, 20, 20, 20, 13, 14, 20, 20, 20, 20, 20, 20; int(0..20)],
         [3, 9, 9, 3, 15, 16, 16, 17, 17, 9, 20, 20, 20, 20, 20, 15, 16, 17, 20, 20, 20; int(0..20)],
         [4, 10, 13, 15, 4, 13, 18, 10, 13, 20, 10, 20, 20, 13, 20, 15, 20, 20, 18, 20, 20; int(0..20)],
         [5, 11, 13, 16, 13, 5, 16, 19, 13, 20, 20, 11, 20, 13, 20, 20, 16, 20, 20, 19, 20; int(0..20)],
         [6, 12, 14, 16, 18, 16, 6, 14, 12, 20, 20, 20, 12, 20, 14, 20, 16, 20, 18, 20, 20; int(0..20)],
         [7, 10, 14, 17, 10, 19, 14, 7, 17, 20, 10, 20, 20, 20, 14, 20, 20, 17, 20, 19, 20; int(0..20)],
         [8, 12, 13, 17, 13, 13, 12, 17, 8, 20, 20, 20, 12, 13, 20, 20, 20, 17, 20, 20, 20; int(0..20)],
         [9, 9, 9, 9, 20, 20, 20, 20, 20, 9, 20, 20, 20, 20, 20, 20, 20, 20, 20, 20, 20; int(0..20)],
         [10, 10, 20, 20, 10, 20, 20, 10, 20, 20, 10, 20, 20, 20, 20, 20, 20, 20, 20, 20, 20; int(0..20)],
         [11, 11, 20, 20, 20, 11, 20, 20, 20, 20, 20, 11, 20, 20, 20, 20, 20, 20, 20, 20, 20; int(0..20)],
         [12, 12, 20, 20, 20, 20, 12, 20, 12, 20, 20, 20, 12, 20, 20, 20, 20, 20, 20, 20, 20; int(0..20)],
         [13, 20, 13, 20, 13, 13, 20, 20, 13, 20, 20, 20, 20, 13, 20, 20, 20, 20, 20, 20, 20; int(0..20)],
         [14, 20, 14, 20, 20, 20, 14, 14, 20, 20, 20, 20, 20, 20, 14, 20, 20, 20, 20, 20, 20; int(0..20)],
         [15, 20, 20, 15, 15, 20, 20, 20, 20, 20, 20, 20, 20, 20, 20, 15, 20, 20, 20, 20, 20; int(0..20)],
         [16, 20, 20, 16, 20, 16, 16, 20, 20, 20, 20, 20, 20, 20, 20, 20, 16, 20, 20, 20, 20; int(0..20)],
         [17, 20, 20, 17, 20, 20, 20, 17, 17, 20, 20, 20, 20, 20, 20, 20, 20, 17, 20, 20, 20; int(0..20)],
         [18, 20, 20, 20, 18, 20, 18, 20, 20, 20, 20, 20, 20, 20, 20, 20, 20, 20, 18, 20, 20; int(0..20)],
         [19, 20, 20, 20, 20, 19, 20, 19, 20, 20, 20, 20, 20, 20, 20, 20, 20, 20, 20, 19, 20; int(0..20)],
         [20, 20, 20, 20, 20, 20, 20, 20, 20, 20, 20, 20, 20, 20, 20, 20, 20, 20, 20, 20, 20; int(0..20)];
             int(0..20)]
$ Visualisation for J_FunctionND
$  0  1  2  3  4  5  6  7  8  9 10 11 12 13 14 15 16 17 18 19 20
$  1  1  9  9 10 11 12 10 12  9 10 11 12 20 20 20 20 20 20 20 20
$  2  9  2  9 13 13 14 14 13  9 20 20 20 13 14 20 20 20 20 20 20
$  3  9  9  3 15 16 16 17 17  9 20 20 20 20 20 15 16 17 20 20 20
$  4 10 13 15  4 13 18 10 13 20 10 20 20 13 20 15 20 20 18 20 20
$  5 11 13 16 13  5 16 19 13 20 20 11 20 13 20 20 16 20 20 19 20
$  6 12 14 16 18 16  6 14 12 20 20 20 12 20 14 20 16 20 18 20 20
$  7 10 14 17 10 19 14  7 17 20 10 20 20 20 14 20 20 17 20 19 20
$  8 12 13 17 13 13 12 17  8 20 20 20 12 13 20 20 20 17 20 20 20
$  9  9  9  9 20 20 20 20 20  9 20 20 20 20 20 20 20 20 20 20 20
$ 10 10 20 20 10 20 20 10 20 20 10 20 20 20 20 20 20 20 20 20 20
$ 11 11 20 20 20 11 20 20 20 20 20 11 20 20 20 20 20 20 20 20 20
$ 12 12 20 20 20 20 12 20 12 20 20 20 12 20 20 20 20 20 20 20 20
$ 13 20 13 20 13 13 20 20 13 20 20 20 20 13 20 20 20 20 20 20 20
$ 14 20 14 20 20 20 14 14 20 20 20 20 20 20 14 20 20 20 20 20 20
$ 15 20 20 15 15 20 20 20 20 20 20 20 20 20 20 15 20 20 20 20 20
$ 16 20 20 16 20 16 16 20 20 20 20 20 20 20 20 20 16 20 20 20 20
$ 17 20 20 17 20 20 20 17 17 20 20 20 20 20 20 20 20 17 20 20 20
$ 18 20 20 20 18 20 18 20 20 20 20 20 20 20 20 20 20 20 18 20 20
$ 19 20 20 20 20 19 20 19 20 20 20 20 20 20 20 20 20 20 20 19 20
$ 20 20 20 20 20 20 20 20 20 20 20 20 20 20 20 20 20 20 20 20 20

letting M_FunctionND be
        [[0, 0, 0, 0, 0, 0, 0, 0, 0, 0, 0, 0, 0, 0, 0, 0, 0, 0, 0, 0, 0; int(0..20)],
         [0, 1, 0, 0, 0, 0, 0, 0, 0, 1, 1, 1, 1, 0, 0, 0, 0, 0, 0, 0, 1; int(0..20)],
         [0, 0, 2, 0, 0, 0, 0, 0, 0, 2, 0, 0, 0, 2, 2, 0, 0, 0, 0, 0, 2; int(0..20)],
         [0, 0, 0, 3, 0, 0, 0, 0, 0, 3, 0, 0, 0, 0, 0, 3, 3, 3, 0, 0, 3; int(0..20)],
         [0, 0, 0, 0, 4, 0, 0, 0, 0, 0, 4, 0, 0, 4, 0, 4, 0, 0, 4, 0, 4; int(0..20)],
         [0, 0, 0, 0, 0, 5, 0, 0, 0, 0, 0, 5, 0, 5, 0, 0, 5, 0, 0, 5, 5; int(0..20)],
         [0, 0, 0, 0, 0, 0, 6, 0, 0, 0, 0, 0, 6, 0, 6, 0, 6, 0, 6, 0, 6; int(0..20)],
         [0, 0, 0, 0, 0, 0, 0, 7, 0, 0, 7, 0, 0, 0, 7, 0, 0, 7, 0, 7, 7; int(0..20)],
         [0, 0, 0, 0, 0, 0, 0, 0, 8, 0, 0, 0, 8, 8, 0, 0, 0, 8, 0, 0, 8; int(0..20)],
         [0, 1, 2, 3, 0, 0, 0, 0, 0, 9, 1, 1, 1, 2, 2, 3, 3, 3, 0, 0, 9; int(0..20)],
         [0, 1, 0, 0, 4, 0, 0, 7, 0, 1, 10, 1, 1, 4, 7, 4, 0, 7, 4, 7, 10; int(0..20)],
         [0, 1, 0, 0, 0, 5, 0, 0, 0, 1, 1, 11, 1, 5, 0, 0, 5, 0, 0, 5, 11; int(0..20)],
         [0, 1, 0, 0, 0, 0, 6, 0, 8, 1, 1, 1, 12, 8, 6, 0, 6, 8, 6, 0, 12; int(0..20)],
         [0, 0, 2, 0, 4, 5, 0, 0, 8, 2, 4, 5, 8, 13, 2, 4, 5, 8, 4, 5, 13; int(0..20)],
         [0, 0, 2, 0, 0, 0, 6, 7, 0, 2, 7, 0, 6, 2, 14, 0, 6, 7, 6, 7, 14; int(0..20)],
         [0, 0, 0, 3, 4, 0, 0, 0, 0, 3, 4, 0, 0, 4, 0, 15, 3, 3, 4, 0, 15; int(0..20)],
         [0, 0, 0, 3, 0, 5, 6, 0, 0, 3, 0, 5, 6, 5, 6, 3, 16, 3, 6, 5, 16; int(0..20)],
         [0, 0, 0, 3, 0, 0, 0, 7, 8, 3, 7, 0, 8, 8, 7, 3, 3, 17, 0, 7, 17; int(0..20)],
         [0, 0, 0, 0, 4, 0, 6, 0, 0, 0, 4, 0, 6, 4, 6, 4, 6, 0, 18, 0, 18; int(0..20)],
         [0, 0, 0, 0, 0, 5, 0, 7, 0, 0, 7, 5, 0, 5, 7, 0, 5, 7, 0, 19, 19; int(0..20)],
         [0, 1, 2, 3, 4, 5, 6, 7, 8, 9, 10, 11, 12, 13, 14, 15, 16, 17, 18, 19, 20; int(0..20)];
             int(0..20)]
$ Visualisation for M_FunctionND
$  0  0  0  0  0  0  0  0  0  0  0  0  0  0  0  0  0  0  0  0  0
$  0  1  0  0  0  0  0  0  0  1  1  1  1  0  0  0  0  0  0  0  1
$  0  0  2  0  0  0  0  0  0  2  0  0  0  2  2  0  0  0  0  0  2
$  0  0  0  3  0  0  0  0  0  3  0  0  0  0  0  3  3  3  0  0  3
$  0  0  0  0  4  0  0  0  0  0  4  0  0  4  0  4  0  0  4  0  4
$  0  0  0  0  0  5  0  0  0  0  0  5  0  5  0  0  5  0  0  5  5
$  0  0  0  0  0  0  6  0  0  0  0  0  6  0  6  0  6  0  6  0  6
$  0  0  0  0  0  0  0  7  0  0  7  0  0  0  7  0  0  7  0  7  7
$  0  0  0  0  0  0  0  0  8  0  0  0  8  8  0  0  0  8  0  0  8
$  0  1  2  3  0  0  0  0  0  9  1  1  1  2  2  3  3  3  0  0  9
$  0  1  0  0  4  0  0  7  0  1 10  1  1  4  7  4  0  7  4  7 10
$  0  1  0  0  0  5  0  0  0  1  1 11  1  5  0  0  5  0  0  5 11
$  0  1  0  0  0  0  6  0  8  1  1  1 12  8  6  0  6  8  6  0 12
$  0  0  2  0  4  5  0  0  8  2  4  5  8 13  2  4  5  8  4  5 13
$  0  0  2  0  0  0  6  7  0  2  7  0  6  2 14  0  6  7  6  7 14
$  0  0  0  3  4  0  0  0  0  3  4  0  0  4  0 15  3  3  4  0 15
$  0  0  0  3  0  5  6  0  0  3  0  5  6  5  6  3 16  3  6  5 16
$  0  0  0  3  0  0  0  7  8  3  7  0  8  8  7  3  3 17  0  7 17
$  0  0  0  0  4  0  6  0  0  0  4  0  6  4  6  4  6  0 18  0 18
$  0  0  0  0  0  5  0  7  0  0  7  5  0  5  7  0  5  7  0 19 19
$  0  1  2  3  4  5  6  7  8  9 10 11 12 13 14 15 16 17 18 19 20

letting R_Function1D be [0, 1, 1, 1, 1, 1, 1, 1, 1, 2, 2, 2, 2, 2, 2, 2, 2, 2, 2, 2, 3; int(0..20)]
